50
17007

577 434
393 978
674 965
239 527
663 47
92 818
976 868
473 694
493 847
279 863
139 951
329 151
215 890
36 831
133 19
861 878
244 294
97 213
306 489
112 290
425 16
166 925
789 846
527 611
422 725
413 595
856 533
717 363
188 808
699 477
370 38
398 249
542 652
886 540
937 725
707 426
481 451
545 726
601 389
852 703
325 835
451 931
823 863
944 487
214 983
213 632
387 504
389 590
77 378
710 836
